#######################
Slurm job id: 17497813_173
Running on machine: p29
Running cmd: /nfs/shared/static-builds/gurobi1003 SOFTMEMLIMIT=125 TimeLimit=300 seed=2 /nfs/models/miplib2010/k16x240.mps.bz2
#######################
Set parameter TimeLimit to value 300
Set parameter SoftMemLimit to value 125
Set parameter LogFile to value 1003-TimeLimit300-k16x240-2.log
Set parameter Seed to value 2
Using license file /opt/gurobi/gurobi.lic

Gurobi Optimizer version 10.0.3 build v10.0.3rc0 (linux64)
Copyright (c) 2023, Gurobi Optimization, LLC

Read MPS format model from file /nfs/models/miplib2010/k16x240.mps.bz2
Reading time = 0.00 seconds
k16x240: 256 rows, 480 columns, 960 nonzeros

CPU model: Intel(R) Xeon(R) E-2388G CPU @ 3.20GHz, instruction set [SSE2|AVX|AVX2|AVX512]
Thread count: 8 physical cores, 16 logical processors, using up to 16 threads

Optimize a model with 256 rows, 480 columns and 960 nonzeros
Model fingerprint: 0x4e80885f
Variable types: 240 continuous, 240 integer (240 binary)
Coefficient statistics:
  Matrix range     [1e+00, 1e+03]
  Objective range  [1e+00, 1e+03]
  Bounds range     [1e+00, 1e+03]
  RHS range        [4e+00, 4e+02]
Found heuristic solution: objective 20929.000000
Presolve time: 0.00s
Presolved: 256 rows, 480 columns, 960 nonzeros
Variable types: 240 continuous, 240 integer (240 binary)

Root relaxation: objective 2.769838e+03, 51 iterations, 0.00 seconds (0.00 work units)

    Nodes    |    Current Node    |     Objective Bounds      |     Work
 Expl Unexpl |  Obj  Depth IntInf | Incumbent    BestBd   Gap | It/Node Time

     0     0 2769.83800    0   14 20929.0000 2769.83800  86.8%     -    0s
H    0     0                    11359.000000 2769.83800  75.6%     -    0s
H    0     0                    11195.000000 2769.83800  75.3%     -    0s
H    0     0                    11074.000000 8084.69631  27.0%     -    0s
     0     0 8084.69631    0   26 11074.0000 8084.69631  27.0%     -    0s
H    0     0                    10916.000000 8084.69631  25.9%     -    0s
     0     0 8528.16906    0   24 10916.0000 8528.16906  21.9%     -    0s
H    0     0                    10806.000000 8539.15185  21.0%     -    0s
     0     0 8539.15185    0   34 10806.0000 8539.15185  21.0%     -    0s
     0     0 8548.03675    0   29 10806.0000 8548.03675  20.9%     -    0s
     0     0 8731.72784    0   36 10806.0000 8731.72784  19.2%     -    0s
H    0     0                    10717.000000 8731.72784  18.5%     -    0s
     0     0 8793.93645    0   29 10717.0000 8793.93645  17.9%     -    0s
     0     0 8811.75933    0   32 10717.0000 8811.75933  17.8%     -    0s
     0     0 8817.74235    0   29 10717.0000 8817.74235  17.7%     -    0s
     0     0 8880.40020    0   37 10717.0000 8880.40020  17.1%     -    0s
     0     0 8929.21279    0   34 10717.0000 8929.21279  16.7%     -    0s
     0     0 8932.61799    0   37 10717.0000 8932.61799  16.7%     -    0s
     0     0 8999.13662    0   41 10717.0000 8999.13662  16.0%     -    0s
     0     0 9056.52918    0   38 10717.0000 9056.52918  15.5%     -    0s
     0     0 9062.77133    0   40 10717.0000 9062.77133  15.4%     -    0s
     0     0 9102.13239    0   34 10717.0000 9102.13239  15.1%     -    0s
     0     0 9118.85058    0   39 10717.0000 9118.85058  14.9%     -    0s
     0     0 9123.11263    0   37 10717.0000 9123.11263  14.9%     -    0s
     0     0 9174.99188    0   32 10717.0000 9174.99188  14.4%     -    0s
     0     0 9174.99188    0   32 10717.0000 9174.99188  14.4%     -    0s
H    0     0                    10711.000000 9175.94388  14.3%     -    0s
     0     2 9175.94388    0   32 10711.0000 9175.94388  14.3%     -    0s
H   36    40                    10678.000000 9229.99777  13.6%  43.6    0s
H 1678  1185                    10674.000000 9444.13464  11.5%  21.7    1s
 26464  8970 10506.8891   23   39 10674.0000 10088.2052  5.49%  30.2    5s
 52004 11767 10585.7736   30   13 10674.0000 10267.9282  3.80%  31.3   10s
 86320  6892 10527.8370   32   20 10674.0000 10470.3897  1.91%  31.6   15s

Cutting planes:
  Lift-and-project: 10
  Cover: 12
  Implied bound: 10
  MIR: 144
  Flow cover: 544
  Flow path: 44
  Zero half: 9
  Network: 30
  Relax-and-lift: 1

Explored 100473 nodes (3034732 simplex iterations) in 16.45 seconds (20.63 work units)
Thread count was 16 (of 16 available processors)

Solution count 10: 10674 10678 10711 ... 20929

Optimal solution found (tolerance 1.00e-04)
Best objective 1.067400000000e+04, best bound 1.067400000000e+04, gap 0.0000%
